69 31 62 88 
53 
42 14 44 38 86 91 100 93 
83 45 8 84 17 60 89 
63 64 11 90 10 32 70 
40 87 57 43 13 
27 30 51 9 81 34 35 77 
21 73 75 74 58 
52 82 7 18 
33 65 71 66 20 1 
5 59 99 94 6 96 
95 92 98 16 61 85 37 97 
72 39 23 67 55 54 24 80 
2 15 41 22 56 4 25 
47 36 19 49 46 48 
76 12 26 
28 29 78 79 3 50 68 
